################### Instance Number: 6
Numero di nodi nella rete: 50
Numero di archi nella rete: 475
Numero di Ordini: 100
########################### CREATION OF THE ILP MODEL ############################
Start TIME to creation of the model: 2016-07-14 14:40:57.245000
FINISH TIME to creation of the model: 2016-07-14 14:41:07.399000
Impiegati 10.1540000439 secondi.
########################### WRITE THE LP MODEL ############################
############################ INIZIO A RISOLVERE IL PROBLEMA ##########################

Gurobi Optimizer version 6.5.1 build v6.5.1rc3 (win64)
Copyright (c) 2016, Gurobi Optimization, Inc.

Read LP format model from file C:\Users\Trappola\AppData\Local\Temp\7416-pulp.lp
Reading time = 0.32 seconds
(null): 5575 rows, 47500 columns, 190000 nonzeros
Optimize a model with 5575 rows, 47500 columns and 190000 nonzeros
Coefficient statistics:
  Matrix range    [1e+00, 1e+01]
  Objective range [2e+01, 3e+03]
  Bounds range    [1e+00, 1e+00]
  RHS range       [1e+00, 2e+02]
Found heuristic solution: objective 788520
Presolve time: 0.33s
Presolved: 5575 rows, 47500 columns, 179800 nonzeros
Variable types: 0 continuous, 47500 integer (47500 binary)

Root relaxation: objective 1.487250e+05, 2134 iterations, 0.10 seconds

    Nodes    |    Current Node    |     Objective Bounds      |     Work
 Expl Unexpl |  Obj  Depth IntInf | Incumbent    BestBd   Gap | It/Node Time

     0     0 148725.049    0  210 788520.221 148725.049  81.1%     -    0s
H    0     0                    163714.15370 148725.049  9.16%     -    0s
H    0     0                    153500.53710 148725.049  3.11%     -    1s
H    0     0                    153423.61480 148725.049  3.06%     -    2s
     0     0 151387.982    0  252 153423.615 151387.982  1.33%     -    2s
     0     0 151496.376    0  287 153423.615 151496.376  1.26%     -    2s
     0     0 151938.752    0  372 153423.615 151938.752  0.97%     -    3s
     0     0 151938.752    0  215 153423.615 151938.752  0.97%     -    4s
     0     0 151938.752    0  259 153423.615 151938.752  0.97%     -    5s
     0     0 151938.752    0  310 153423.615 151938.752  0.97%     -    5s
     0     0 152125.854    0  386 153423.615 152125.854  0.85%     -    6s
     0     0 152261.989    0  355 153423.615 152261.989  0.76%     -    6s
     0     0 152386.412    0  315 153423.615 152386.412  0.68%     -    6s
     0     0 152386.412    0  189 153423.615 152386.412  0.68%     -    7s
     0     0 152386.412    0  240 153423.615 152386.412  0.68%     -    8s
     0     0 152386.412    0  307 153423.615 152386.412  0.68%     -    8s
     0     0 152386.412    0  293 153423.615 152386.412  0.68%     -    8s
     0     0 152421.816    0  302 153423.615 152421.816  0.65%     -    9s
     0     0 152465.867    0  387 153423.615 152465.867  0.62%     -    9s
H    0     0                    153326.75290 152465.867  0.56%     -    9s
     0     0 152554.126    0  321 153326.753 152554.126  0.50%     -    9s
     0     0 152591.394    0  347 153326.753 152591.394  0.48%     -    9s
     0     0 152591.394    0  159 153326.753 152591.394  0.48%     -   10s
     0     0 152591.394    0  236 153326.753 152591.394  0.48%     -   10s
     0     0 152591.394    0  280 153326.753 152591.394  0.48%     -   10s
     0     0 152591.394    0  275 153326.753 152591.394  0.48%     -   10s
     0     0 152591.394    0  294 153326.753 152591.394  0.48%     -   10s
     0     0 152591.394    0  309 153326.753 152591.394  0.48%     -   11s
H    0     0                    153288.61430 152591.394  0.45%     -   11s
H    0     0                    153065.89240 152591.394  0.31%     -   11s
     0     0 152618.434    0  286 153065.892 152618.434  0.29%     -   11s
     0     0 152663.237    0  304 153065.892 152663.237  0.26%     -   12s
     0     0 152663.237    0  117 153065.892 152663.237  0.26%     -   12s
     0     0 152663.237    0  167 153065.892 152663.237  0.26%     -   12s
     0     0 152663.237    0  219 153065.892 152663.237  0.26%     -   12s
     0     0 152663.237    0  250 153065.892 152663.237  0.26%     -   12s
     0     0 152663.237    0  210 153065.892 152663.237  0.26%     -   12s
     0     0 152663.237    0  224 153065.892 152663.237  0.26%     -   12s
     0     0 152663.237    0  244 153065.892 152663.237  0.26%     -   12s
     0     0 152674.961    0  223 153065.892 152674.961  0.26%     -   12s
     0     0 152678.421    0  230 153065.892 152678.421  0.25%     -   13s
     0     0 152693.858    0  236 153065.892 152693.858  0.24%     -   13s
     0     0 152693.858    0  103 153065.892 152693.858  0.24%     -   13s
     0     0 152693.858    0  162 153065.892 152693.858  0.24%     -   13s
     0     0 152693.858    0  215 153065.892 152693.858  0.24%     -   13s
     0     0 152693.858    0  213 153065.892 152693.858  0.24%     -   13s
     0     0 152693.858    0  204 153065.892 152693.858  0.24%     -   14s
     0     0 152693.858    0  191 153065.892 152693.858  0.24%     -   14s
     0     0 152693.858    0  226 153065.892 152693.858  0.24%     -   14s
     0     0 152693.858    0  234 153065.892 152693.858  0.24%     -   14s
     0     0 152696.700    0  218 153065.892 152696.700  0.24%     -   14s
     0     0 152720.044    0  213 153065.892 152720.044  0.23%     -   14s
     0     0 152722.312    0  224 153065.892 152722.312  0.22%     -   14s
     0     0 152724.145    0  222 153065.892 152724.145  0.22%     -   14s
     0     0 152727.073    0  225 153065.892 152727.073  0.22%     -   14s
     0     0 152727.922    0  232 153065.892 152727.922  0.22%     -   14s
     0     0 152727.922    0   88 153065.892 152727.922  0.22%     -   14s
     0     0 152727.922    0  155 153065.892 152727.922  0.22%     -   15s
     0     0 152727.922    0  162 153065.892 152727.922  0.22%     -   15s
     0     0 152727.922    0  180 153065.892 152727.922  0.22%     -   15s
     0     0 152727.922    0  193 153065.892 152727.922  0.22%     -   15s
     0     0 152727.922    0  212 153065.892 152727.922  0.22%     -   15s
     0     0 152727.922    0  199 153065.892 152727.922  0.22%     -   15s
     0     0 152727.922    0  202 153065.892 152727.922  0.22%     -   15s
     0     0 152727.922    0  195 153065.892 152727.922  0.22%     -   15s
     0     0 152727.922    0  204 153065.892 152727.922  0.22%     -   15s
     0     0 152727.922    0  201 153065.892 152727.922  0.22%     -   15s
     0     0 152730.876    0  199 153065.892 152730.876  0.22%     -   15s
     0     0 152733.148    0  221 153065.892 152733.148  0.22%     -   15s
     0     0 152734.551    0  210 153065.892 152734.551  0.22%     -   15s
     0     0 152734.599    0  214 153065.892 152734.599  0.22%     -   15s
     0     0 152737.865    0  195 153065.892 152737.865  0.21%     -   15s
     0     0 152737.940    0  196 153065.892 152737.940  0.21%     -   15s
     0     0 152740.105    0  198 153065.892 152740.105  0.21%     -   15s
     0     2 152740.105    0  198 153065.892 152740.105  0.21%     -   16s
H 1376   118                    153045.36040 152956.808  0.06%  22.6   17s

Cutting planes:
  Gomory: 3
  Cover: 74
  MIR: 79
  GUB cover: 9

Explored 1677 nodes (51954 simplex iterations) in 17.69 seconds
Thread count was 8 (of 8 available processors)

Optimal solution found (tolerance 1.00e-04)
Best objective 1.530453604000e+05, best bound 1.530453604000e+05, gap 0.0%

Wrote result file 'C:\Users\Trappola\AppData\Local\Temp\7416-pulp.sol'

('Status:', 'Optimal')
('Total Cost of Ingredients per can = ', 153045.3604)
